c SAT Generator for power-law distributed variable frequencies
c -g u -v 20 -c 91 -k 3 -p 2.750000 -b 3.200000 -f /home/schmidt/Devel/ni-kop-sat/data/ensemble/ruf20-91/ruf20-91-930 -u 1 -U 1 -s 3868156872
p cnf 20 91
12 -14 16 0
-13 17 20 0
-8 -10 -14 0
3 5 9 0
5 9 -18 0
1 3 14 0
-4 -5 -7 0
3 -16 -20 0
5 -7 -14 0
-1 -10 -11 0
-1 -5 9 0
-1 14 17 0
-2 -12 -20 0
-5 -11 -16 0
-4 17 20 0
-1 -11 -20 0
3 -15 -19 0
-2 5 19 0
1 3 15 0
-2 -8 -12 0
-3 -12 17 0
1 13 -16 0
-2 -18 -19 0
5 -14 20 0
4 13 17 0
1 -7 -19 0
-4 -7 -19 0
-5 8 12 0
-3 -12 19 0
9 15 -20 0
-14 -16 -17 0
-5 -11 14 0
3 15 20 0
-3 12 -19 0
-9 -17 19 0
2 9 10 0
-6 -11 -15 0
11 -13 -17 0
-3 4 -8 0
1 -12 -17 0
-2 7 -8 0
-6 -11 -16 0
7 19 20 0
13 -15 16 0
-7 8 -18 0
1 4 -7 0
-1 -10 -18 0
-6 8 9 0
4 -14 17 0
2 4 -18 0
-8 17 18 0
3 18 -19 0
-7 12 14 0
3 -12 13 0
2 -4 -14 0
-2 -16 18 0
10 14 -20 0
2 6 17 0
9 14 20 0
9 -13 -18 0
-5 12 16 0
-4 -18 -19 0
-1 12 15 0
-9 11 16 0
5 12 -13 0
7 11 13 0
5 6 -8 0
-1 -18 -19 0
9 -13 -19 0
-3 13 19 0
-14 -18 19 0
-3 -16 17 0
-10 -17 -19 0
8 13 14 0
6 7 -13 0
-2 -17 -18 0
-7 10 -16 0
5 -8 20 0
-1 2 9 0
-5 12 -13 0
-6 10 15 0
3 4 9 0
-4 -5 7 0
4 7 14 0
14 -15 20 0
6 -14 -19 0
5 -8 14 0
-5 -7 17 0
4 11 -15 0
-2 3 -17 0
-5 -9 19 0
